JulietBench/Juliet_Based_Patch_Bench/linux/CWE-189-Numeric-Errors/CVE_2012_4565_8f363b77ee4fbf7c3bbcf5ec2c5ca482d396d664/Resulttcp_illinois_info_Snippet_patch1EQ.smt2
; benchmark generated from python API
(set-info :status unknown)
(declare-fun R () (_ BitVec 32))
(declare-fun rsi () (_ BitVec 64))
(declare-fun rdi () (_ BitVec 64))
(assert
 (let (($x125 (= (_ bv0 32) R)))
 (let ((?x37 ((_ extract 7 0) rsi)))
 (let ((?x20 (bvand ?x37 (_ bv8 8))))
 (let (($x35 (= (_ bv0 8) ?x20)))
 (let (($x126 (and $x35 $x125)))
 (let (($x130 (= (_ bv4294967295 32) R)))
 (let (($x78 (and (distinct (_ bv0 8) ?x20) true)))
 (let ((?x12 ((_ extract 15 0) rdi)))
 (let (($x96 (= (_ bv0 16) ?x12)))
 (let (($x131 (and $x96 $x78 $x130)))
 (let ((?x90 (concat (_ bv0 16) ?x12)))
 (let (($x123 (= R ?x90)))
 (let (($x109 (and (distinct (_ bv0 16) ?x12) true)))
 (let (($x128 (and $x109 $x78 $x123)))
 (let (($x132 (or $x128 $x131 $x126)))
 (let (($x124 (and $x78 $x123)))
 (let (($x127 (or $x124 $x126)))
 (and $x127 $x132)))))))))))))))))))
(check-sat)
